p cnf 100 30
x -2 4 8 11 13 -14 -15 -18 -19 -20 -23 -27 29 -30 32 -36 -41 44 46 -50 51 54 55 63 66 67 68 69 70 71 -75 -76 -80 -81 -82 -83 -87 88 -89 93 94 -98 0
x -2 -6 7 10 -11 -12 13 -16 -18 -24 -25 26 -28 -30 32 33 -34 -43 44 -45 -47 -50 54 55 -58 59 62 63 64 -68 69 70 -71 -72 73 75 -76 77 78 79 -81 83 -84 89 -90 93 96 97 0
x 3 -6 -7 9 -10 -15 -16 17 19 -20 -21 -22 -23 25 26 29 -31 32 33 38 39 -40 -43 45 -46 47 48 -49 -50 -53 -55 -58 -62 66 -70 71 -73 78 79 83 -84 -89 -91 -92 93 0
x -1 -2 -4 6 -7 -9 12 20 21 -22 -25 -26 -27 -30 31 33 -34 35 36 38 40 43 -44 45 46 47 48 49 -52 53 54 -57 -60 -62 63 65 66 -68 70 -71 -73 75 77 -79 81 85 86 -87 88 89 -90 95 96 97 98 -99 0
x -3 5 -7 -11 -12 13 16 17 19 -20 -24 -25 -26 -31 -38 -40 41 -43 46 -49 -50 -52 -56 -59 -60 64 -65 68 69 -72 -73 -76 -77 -79 81 -83 85 -86 -87 88 89 93 97 98 -99 100 0
x 1 3 5 6 7 8 10 -12 13 -16 19 24 -25 27 -29 -32 33 35 -38 -39 -41 -43 -44 -45 46 -48 49 -50 53 54 -55 -58 68 70 74 -76 -77 80 82 -85 -86 -87 -93 94 96 97 98 -99 100 0
x 3 -6 -7 9 -12 -14 15 -16 -17 -18 25 -26 28 -29 -32 -34 -35 39 41 44 -45 -46 47 -55 57 58 61 63 -65 -66 -68 -69 72 75 76 79 -80 82 85 86 -87 90 -92 93 94 97 99 -100 0
x 3 -4 -5 6 -7 -8 9 11 12 15 17 18 19 22 -24 -29 -32 34 -35 -40 -41 42 -43 47 48 -51 -53 58 62 64 -66 -68 73 -77 -79 -82 -84 85 87 91 -94 99 100 0
x 1 4 6 -8 9 -10 -12 -15 -16 -18 -21 22 23 24 -25 26 27 28 33 -34 -37 41 42 43 44 45 46 47 -50 -51 -52 53 -56 57 -58 -59 63 -65 -66 -68 -71 72 -74 -78 79 81 84 -86 88 -89 90 -93 94 96 97 99 0
x -2 -3 -6 7 -8 9 -10 11 12 -13 14 15 19 20 21 -22 -23 25 -27 28 29 30 31 -32 33 -34 35 39 40 42 43 -44 -45 46 48 49 50 52 55 56 57 -58 62 63 66 68 -69 70 -71 72 73 -74 -76 -77 -78 -79 81 82 -92 -94 -96 98 99 100 0
x 1 2 -3 -4 5 6 -9 11 -14 -18 19 20 22 -24 25 26 28 29 30 31 33 35 -38 46 -47 -48 54 57 59 60 -63 -64 -66 -67 -68 69 -73 75 -76 -78 -81 82 -84 85 86 -87 -88 -89 -90 92 94 95 96 0
x 3 5 -7 -8 9 10 -11 -14 19 21 23 27 -30 32 34 35 -39 40 42 43 -46 -47 49 50 -59 -65 67 -71 -75 77 79 83 84 -87 90 93 -94 -95 98 -99 0
x 1 -2 -5 9 11 16 19 20 21 22 -23 28 -29 32 33 35 38 -40 41 42 -43 -45 -46 -47 48 49 -51 -55 -59 -60 -62 64 65 66 77 80 86 87 -88 -90 91 92 -93 -94 98 0
x 1 -2 7 -8 9 -10 11 12 13 14 20 21 -24 26 32 35 -36 -37 39 43 -46 47 48 -49 -51 -54 -56 58 -60 -61 -62 -65 66 -67 68 -69 -70 -74 75 -76 -79 -83 -85 86 87 90 92 93 -94 -98 -100 0
x 4 5 6 7 -8 10 -11 -12 -13 16 18 -24 -26 -29 31 -35 36 38 -42 -44 45 -46 -47 -52 -53 -54 -55 -60 -61 62 -63 64 65 -66 -67 68 71 72 -74 76 -77 -83 85 86 -87 89 -93 94 -96 -97 98 0
x 2 3 4 -8 9 -10 13 -14 16 19 -20 22 23 -26 29 32 34 35 37 -39 -40 43 -44 47 -48 49 -51 -52 53 -54 -55 57 58 59 64 -65 -68 -69 71 -73 -75 78 80 -81 86 -87 -93 95 -97 98 100 0
x 4 -6 -8 -10 -12 -13 16 18 19 20 -22 23 -28 -31 32 34 -35 -36 -38 39 -40 41 43 -45 -47 48 49 50 53 61 -63 71 -74 78 79 80 81 -85 -86 87 88 89 -91 -92 -94 -95 97 -98 0
x -2 -3 6 -8 -14 -16 -17 -19 -20 -27 -29 33 -37 -39 -41 45 -46 -48 49 -53 54 -57 60 62 63 -65 69 70 -75 78 79 -82 83 -84 87 88 90 91 92 -97 98 0
x 7 -10 11 -12 13 15 -18 -19 -20 -22 -23 -25 26 -29 30 31 32 -35 38 39 40 41 42 -43 44 45 -46 47 48 51 57 58 60 63 67 68 69 -70 72 -76 -78 -80 -82 -83 85 -86 -92 93 94 97 -98 -99 -100 0
x 1 -7 -10 14 -15 17 18 -19 -20 24 -27 -29 -30 -31 32 33 -35 36 37 -39 41 43 45 48 -49 50 -52 53 55 56 58 59 -61 64 66 67 -70 -72 -73 -74 76 78 -79 80 89 -90 92 93 -97 98 0
x 1 2 -3 4 -7 -9 10 11 -13 -14 -19 20 -21 -22 25 -26 28 -29 32 -37 38 -40 -41 42 -45 -48 -49 -50 -55 58 -66 -67 -68 -71 -74 75 77 79 -80 -81 -83 -85 -87 -88 89 -90 -92 93 -95 -97 99 -100 0
x 2 3 -4 5 6 8 10 12 14 -15 20 -22 25 -27 32 34 37 -38 -40 41 -42 43 -44 47 48 -49 -50 51 -52 54 57 -58 59 -60 -61 -62 63 65 66 -68 69 -70 73 76 81 82 -87 -89 91 -92 95 -97 -99 0
x -2 3 -5 -7 -8 -9 -10 11 -12 15 16 17 -18 19 20 -21 25 -26 27 28 30 40 -42 45 47 48 51 -53 -58 -60 61 -62 -65 -70 -74 -78 -79 87 -89 90 93 -96 -98 -99 -100 0
x -2 -3 -6 7 9 -10 -12 -14 15 16 18 -22 25 27 29 -33 -36 37 -38 -39 -42 43 -44 45 46 -48 51 53 54 55 -56 -60 -61 63 64 65 69 70 72 77 -78 79 -82 -84 92 -95 96 -97 -98 99 100 0
x -3 -4 9 11 12 -15 -18 19 -20 -22 23 26 27 -29 -30 32 33 -36 -37 41 -43 45 48 52 -54 55 57 -59 61 65 68 -69 -71 72 -73 -74 -76 77 79 81 82 83 85 -86 89 -91 94 -96 -97 98 -100 0
x 2 3 -5 -6 -7 -8 -10 12 15 -16 -17 -18 19 -21 31 33 35 -39 41 42 -44 -45 46 -47 -52 58 60 -62 -63 65 -67 70 -71 72 73 -74 -75 76 -77 78 80 -81 82 83 84 -85 -86 87 88 91 93 0
x -4 5 8 -9 11 -15 -17 -20 21 -24 26 -28 -29 -31 -33 -34 -37 38 39 42 45 -49 52 53 -54 -55 -56 -58 -59 65 67 -68 -69 72 -74 -77 78 -82 83 -84 -86 -92 95 96 -97 98 -99 0
x 2 -5 6 -7 9 -10 -11 -12 13 -14 -15 -16 -17 19 -22 23 -26 28 29 -30 -31 -32 33 -36 -39 -44 45 46 47 -49 -53 54 55 -56 -59 60 -61 64 -66 67 -68 -70 74 77 79 80 -81 -85 86 88 -89 92 -93 94 -95 -100 0
x 1 6 9 -10 11 14 -17 -23 25 -28 30 -31 35 36 37 38 -39 40 -41 42 43 44 -50 -53 -56 57 -60 61 -62 63 66 -69 -70 -79 -81 -84 86 93 -94 -95 -99 0
x 2 3 -4 8 -9 -10 17 -20 -22 23 -27 -28 -29 -30 -33 -34 -38 42 43 47 -48 53 56 58 59 -60 61 -62 64 66 -67 -68 -77 78 -80 -82 -83 -87 88 89 91 -97 -99 100 0
g -30